primitive cell                                       
   1.00000000000000     
     5.4581999778999997    0.0000000000000000    0.0000000000000000
     2.8346379876999999    4.6644157701999998    0.0000000000000000
    -4.1464178639000000   -2.3322072558000002    2.6758130001999998
   Ti   O 
     2     4
Direct
  0.2500000000000000  0.7500000000000000  0.5000000000000000
  0.5000000000000000  0.5000000000000000  0.0000000000000000
  0.4581000209999999  0.9581000209999999  0.5000000000000000
  0.7081000209999999  0.7081000209999999  0.0000000000000000
  0.2919000090000026  0.2919000090000026  0.0000000000000000
  0.0418999790000001  0.5418999790000001  0.5000000000000000
