unit cell                                       
   1.00000000000000     
     3.7841999530999999    0.0000000000000000    0.0000000000000000
     0.0000000000000000    3.7841999530999999    0.0000000000000000
     0.0000000000000000    0.0000000000000000    9.5145998000999992
   Ti   O 
     4     8
Direct
  0.0000000000000000  0.0000000000000000  0.0000000000000000
  0.5000000000000000  0.5000000000000000  0.5000000000000000
  0.0000000000000000  0.5000000000000000  0.2500000000000000
  0.5000000000000000  0.0000000000000000  0.7500000000000000
  0.0000000000000000  0.0000000000000000  0.7918999790000001
  0.5000000000000000  0.5000000000000000  0.2918999790000001
  0.0000000000000000  0.5000000000000000  0.0418999939999978
  0.5000000000000000  0.0000000000000000  0.5418999790000001
  0.5000000000000000  0.0000000000000000  0.9581000209999999
  0.0000000000000000  0.5000000000000000  0.4581000209999999
  0.5000000000000000  0.5000000000000000  0.7081000209999999
  0.0000000000000000  0.0000000000000000  0.2081000060000022
