SPOSCAR
   1.00000000000000
     8.4517326006285227    0.0000000000000000    0.0000000000000000
     0.0000000000000000   11.3783195641311341    0.0000000000000000
     0.0000000000000000    0.0000000000000000   30.0000000000000000
    Te
    12
Direct
  0.0000000000000000  0.4186498011117812  0.5343587288730354
  0.0000000000000000  0.9186498011117812  0.5343587288730354
  0.5000000000000000  0.4186498011117812  0.5343587288730354
  0.5000000000000000  0.9186498011117812  0.5343587288730354
  0.0000000000000000  0.0813501913882198  0.4656413011269671
  0.0000000000000000  0.5813501913882199  0.4656413011269671
  0.5000000000000000  0.0813501913882198  0.4656413011269671
  0.5000000000000000  0.5813501913882199  0.4656413011269671
  0.2500000000000000  0.2500000000000000  0.5000000000000000
  0.2500000000000000  0.7500000000000000  0.5000000000000000
  0.7500000000000000  0.2500000000000000  0.5000000000000000
  0.7500000000000000  0.7500000000000000  0.5000000000000000
