global                                  
   1.00000000000000     
     4.0000000000000000    0.0000000000000000    0.0000000000000000
     0.0000000000000000    5.0000000000000000    0.0000000000000000
     0.0000000000000000    0.0000000000000000   20.0000000000000000
   A
   3
Direct
  0.0000000000000000  0.8500000000000000  0.5500000000000000
  0.0000000000000000  0.1500000000000000  0.4500000000000000
  0.5000000000000000  0.5000000000000000  0.5000000000000000
