SPOSCAR
   1.00000000000000
    12.0000000000000000    0.0000000000000000    0.0000000000000000
     0.0000000000000000   10.0000000000000000    0.0000000000000000
     0.0000000000000000    0.0000000000000000   20.0000000000000000
    A 
    18
Direct
  0.0000000000000000  0.4250000000000000  0.5500000000000000
  0.0000000000000000  0.9250000000000000  0.5500000000000000
  0.3333333333333333  0.4250000000000000  0.5500000000000000
  0.3333333333333333  0.9250000000000000  0.5500000000000000
  0.6666666666666666  0.4250000000000000  0.5500000000000000
  0.6666666666666666  0.9250000000000000  0.5500000000000000
  0.0000000000000000  0.0750000000000000  0.4500000000000000
  0.0000000000000000  0.5750000000000000  0.4500000000000000
  0.3333333333333333  0.0750000000000000  0.4500000000000000
  0.3333333333333333  0.5750000000000000  0.4500000000000000
  0.6666666666666666  0.0750000000000000  0.4500000000000000
  0.6666666666666666  0.5750000000000000  0.4500000000000000
  0.1666666666666667  0.2500000000000000  0.5000000000000000
  0.1666666666666667  0.7500000000000000  0.5000000000000000
  0.5000000000000000  0.2500000000000000  0.5000000000000000
  0.5000000000000000  0.7500000000000000  0.5000000000000000
  0.8333333333333333  0.2500000000000000  0.5000000000000000
  0.8333333333333333  0.7500000000000000  0.5000000000000000
