global                                  
   1.00000000000000     
     4.2258663003142614    0.0000000000000000    0.0000000000000000
     0.0000000000000000    5.6891597820655671    0.0000000000000000
     0.0000000000000000    0.0000000000000000   30.0000000000000000
   Te
     3
Direct
  0.0000000000000000  0.8372996022235625  0.5343587288730354
  0.0000000000000000  0.1627003827764397  0.4656413011269671
  0.5000000000000000  0.5000000000000000  0.5000000000000000
 
  0.00000000E+00  0.00000000E+00  0.00000000E+00
  0.00000000E+00  0.00000000E+00  0.00000000E+00
  0.00000000E+00  0.00000000E+00  0.00000000E+00
