SPOSCAR
   1.00000000000000
    16.9034652012570454    0.0000000000000000    0.0000000000000000
     0.0000000000000000   17.0674793461967020    0.0000000000000000
     0.0000000000000000    0.0000000000000000   30.0000000000000000
    Te
    36
Direct
  0.0000000000000000  0.2790998674078541  0.5343587288730354
  0.0000000000000000  0.6124332007411875  0.5343587288730354
  0.0000000000000000  0.9457665340745207  0.5343587288730354
  0.2500000000000000  0.2790998674078541  0.5343587288730354
  0.2500000000000000  0.6124332007411875  0.5343587288730354
  0.2500000000000000  0.9457665340745207  0.5343587288730354
  0.5000000000000000  0.2790998674078541  0.5343587288730354
  0.5000000000000000  0.6124332007411875  0.5343587288730354
  0.5000000000000000  0.9457665340745207  0.5343587288730354
  0.7500000000000000  0.2790998674078541  0.5343587288730354
  0.7500000000000000  0.6124332007411875  0.5343587288730354
  0.7500000000000000  0.9457665340745207  0.5343587288730354
  0.0000000000000000  0.0542334609254799  0.4656413011269671
  0.0000000000000000  0.3875667942588132  0.4656413011269671
  0.0000000000000000  0.7209001275921465  0.4656413011269671
  0.2500000000000000  0.0542334609254799  0.4656413011269671
  0.2500000000000000  0.3875667942588132  0.4656413011269671
  0.2500000000000000  0.7209001275921465  0.4656413011269671
  0.5000000000000000  0.0542334609254799  0.4656413011269671
  0.5000000000000000  0.3875667942588132  0.4656413011269671
  0.5000000000000000  0.7209001275921465  0.4656413011269671
  0.7500000000000000  0.0542334609254799  0.4656413011269671
  0.7500000000000000  0.3875667942588132  0.4656413011269671
  0.7500000000000000  0.7209001275921465  0.4656413011269671
  0.1250000000000000  0.1666666666666667  0.5000000000000000
  0.1250000000000000  0.5000000000000000  0.5000000000000000
  0.1250000000000000  0.8333333333333333  0.5000000000000000
  0.3750000000000000  0.1666666666666667  0.5000000000000000
  0.3750000000000000  0.5000000000000000  0.5000000000000000
  0.3750000000000000  0.8333333333333333  0.5000000000000000
  0.6250000000000000  0.1666666666666667  0.5000000000000000
  0.6250000000000000  0.5000000000000000  0.5000000000000000
  0.6250000000000000  0.8333333333333333  0.5000000000000000
  0.8750000000000000  0.1666666666666667  0.5000000000000000
  0.8750000000000000  0.5000000000000000  0.5000000000000000
  0.8750000000000000  0.8333333333333333  0.5000000000000000
